% setf3
n_jobs = 4;
n_machines = 10;
input = [|
    9,11,8,93,0,48,7,76,6,13,5,71,3,59,2,90,4,10,1,65 |
    0,78,1,47,7,29,5,16,4,29,6,57,3,78,2,87,8,39,9,73 |
    8,23,9,76,6,45,7,75,5,24,3,18,4,83,2,15,1,88,0,17 |
    0, 5,1,19,2,20,3,12,4,94,5,60,6,99,7,31,8,96,9,63 |];
